c File: instances/40_0.15_3.col
c
c Description: Random graph of size 40 vertices and P(0.15000000000000002) of edges between any two vertices.
p col 40 780
e 1 9
e 1 11
e 1 28
e 1 30
e 1 34
e 2 13
e 2 21
e 3 13
e 3 16
e 3 17
e 3 18
e 3 23
e 3 30
e 3 32
e 4 15
e 4 23
e 4 25
e 4 31
e 4 32
e 4 40
e 5 16
e 5 20
e 5 25
e 5 37
e 5 39
e 6 34
e 6 36
e 6 39
e 7 8
e 7 16
e 7 18
e 7 21
e 7 25
e 7 29
e 7 30
e 8 16
e 8 28
e 8 34
e 8 37
e 9 20
e 9 29
e 9 31
e 9 33
e 9 34
e 9 36
e 10 16
e 10 24
e 10 26
e 11 17
e 11 19
e 11 36
e 12 14
e 12 26
e 12 32
e 12 36
e 12 39
e 12 40
e 13 14
e 13 16
e 13 20
e 13 25
e 13 30
e 13 34
e 14 23
e 14 28
e 14 36
e 15 21
e 15 22
e 15 24
e 15 28
e 15 37
e 16 17
e 16 20
e 16 37
e 16 39
e 17 38
e 17 39
e 18 20
e 19 26
e 19 40
e 20 22
e 20 23
e 20 31
e 20 35
e 23 26
e 23 29
e 23 30
e 23 33
e 23 35
e 23 38
e 24 29
e 24 37
e 25 30
e 25 32
e 25 35
e 25 37
e 25 39
e 25 40
e 26 28
e 26 31
e 26 32
e 26 34
e 27 30
e 27 32
e 27 39
e 28 34
e 29 35
e 29 38
e 29 39
e 29 40
e 30 36
e 30 39
e 31 33
e 32 36
e 32 40
e 33 35
e 33 39
e 34 35
e 35 36
e 35 40